25
    1    19    19
    2    13    13
    3    15    15
    4    18    18
    5     5     5
    6    19    19
    7     2     2
    8    19    19
    9    15    15
   10     5     5
   11     9     9
   12    20    20
   13    12    12
   14     9     9
   15    11    11
   16     3     3
   17     4     4
   18     2     2
   19    13    13
   20     2     2
   21     3     3
   22    10    10
   23    10    10
   24     2     2
   25    11    11
78
